 Minimize
[ 1.0000000000000000 Z0 * Z152  ]
Subject to
c1: [ -2.7777777777777892 Z0 * Z0  + 3.3333333333333401 Z0 * Z151  + 1.0000000000000000 Z0 * Z152 -1000.0000000000000000 Z51 * Z71 -1000.0000000000000000 Z52 * Z72 -1000.0000000000000000 Z53 * Z73 -1000.0000000000000000 Z54 * Z74 -1000.0000000000000000 Z55 * Z75 -1000.0000000000000000 Z56 * Z76 -1000.0000000000000000 Z57 * Z77 -1000.0000000000000000 Z58 * Z78 -1000.0000000000000000 Z59 * Z79 -1000.0000000000000000 Z60 * Z80 -1000.0000000000000000 Z61 * Z81 -1000.0000000000000000 Z62 * Z82 -1000.0000000000000000 Z63 * Z83 -1000.0000000000000000 Z64 * Z84 -1000.0000000000000000 Z65 * Z85 -1000.0000000000000000 Z66 * Z86 -1000.0000000000000000 Z67 * Z87 -1000.0000000000000000 Z68 * Z88 -1000.0000000000000000 Z69 * Z89 -1000.0000000000000000 Z70 * Z90 -1.0000000000000000 Z91 * Z153 -1.0000000000000000 Z92 * Z154 -1.0000000000000000 Z93 * Z155 -1.0000000000000000 Z94 * Z156 -1.0000000000000000 Z95 * Z157 -1.0000000000000000 Z96 * Z158 -1.0000000000000000 Z97 * Z159 -1.0000000000000000 Z98 * Z160 -1.0000000000000000 Z99 * Z161 -1.0000000000000000 Z100 * Z162 -1.0000000000000000 Z151 * Z151  ] = 0.000000
c2: [ -1.0000000000000000 Z0 * Z91 -1.0000000000000000 Z0 * Z111  + 1.0000000000000000 Z0 * Z121  ] = 0.000000
c3: [ -1.0000000000000000 Z0 * Z92 -1.0000000000000000 Z0 * Z112  + 1.0000000000000000 Z0 * Z122  ] = 0.000000
c4: [ -1.0000000000000000 Z0 * Z93 -1.0000000000000000 Z0 * Z113  + 1.0000000000000000 Z0 * Z123  ] = 0.000000
c5: [ -1.0000000000000000 Z0 * Z94 -1.0000000000000000 Z0 * Z114  + 1.0000000000000000 Z0 * Z124  ] = 0.000000
c6: [ -1.0000000000000000 Z0 * Z95 -1.0000000000000000 Z0 * Z115  + 1.0000000000000000 Z0 * Z125  ] = 0.000000
c7: [ -1.0000000000000000 Z0 * Z96 -1.0000000000000000 Z0 * Z116  + 1.0000000000000000 Z0 * Z126  ] = 0.000000
c8: [ -1.0000000000000000 Z0 * Z97 -1.0000000000000000 Z0 * Z117  + 1.0000000000000000 Z0 * Z127  ] = 0.000000
c9: [ -1.0000000000000000 Z0 * Z98 -1.0000000000000000 Z0 * Z118  + 1.0000000000000000 Z0 * Z128  ] = 0.000000
c10: [ -1.0000000000000000 Z0 * Z99 -1.0000000000000000 Z0 * Z119  + 1.0000000000000000 Z0 * Z129  ] = 0.000000
c11: [ -1.0000000000000000 Z0 * Z100 -1.0000000000000000 Z0 * Z120  + 1.0000000000000000 Z0 * Z130  ] = 0.000000
c12: [ -1.0000000000000000 Z0 * Z101  + 1.0000000000000000 Z0 * Z131 -1.0000000000000000 Z91 * Z141  ] = 0.000000
c13: [ -1.0000000000000000 Z0 * Z102  + 1.0000000000000000 Z0 * Z132 -1.0000000000000000 Z92 * Z142  ] = 0.000000
c14: [ -1.0000000000000000 Z0 * Z103  + 1.0000000000000000 Z0 * Z133 -1.0000000000000000 Z93 * Z143  ] = 0.000000
c15: [ -1.0000000000000000 Z0 * Z104  + 1.0000000000000000 Z0 * Z134 -1.0000000000000000 Z94 * Z144  ] = 0.000000
c16: [ -1.0000000000000000 Z0 * Z105  + 1.0000000000000000 Z0 * Z135 -1.0000000000000000 Z95 * Z145  ] = 0.000000
c17: [ -1.0000000000000000 Z0 * Z106  + 1.0000000000000000 Z0 * Z136 -1.0000000000000000 Z96 * Z146  ] = 0.000000
c18: [ -1.0000000000000000 Z0 * Z107  + 1.0000000000000000 Z0 * Z137 -1.0000000000000000 Z97 * Z147  ] = 0.000000
c19: [ -1.0000000000000000 Z0 * Z108  + 1.0000000000000000 Z0 * Z138 -1.0000000000000000 Z98 * Z148  ] = 0.000000
c20: [ -1.0000000000000000 Z0 * Z109  + 1.0000000000000000 Z0 * Z139 -1.0000000000000000 Z99 * Z149  ] = 0.000000
c21: [ -1.0000000000000000 Z0 * Z110  + 1.0000000000000000 Z0 * Z140 -1.0000000000000000 Z100 * Z150  ] = 0.000000
c22: [ -1.0000000000000000 Z0 * Z91 -1.0000000000000000 Z0 * Z111  + 1.0000000000000000 Z0 * Z112  ] = 0.000000
c23: [ -1.0000000000000000 Z0 * Z92 -1.0000000000000000 Z0 * Z112  + 1.0000000000000000 Z0 * Z113  ] = 0.000000
c24: [ -1.0000000000000000 Z0 * Z93 -1.0000000000000000 Z0 * Z113  + 1.0000000000000000 Z0 * Z114  ] = 0.000000
c25: [ -1.0000000000000000 Z0 * Z94 -1.0000000000000000 Z0 * Z114  + 1.0000000000000000 Z0 * Z115  ] = 0.000000
c26: [ -1.0000000000000000 Z0 * Z95 -1.0000000000000000 Z0 * Z115  + 1.0000000000000000 Z0 * Z116  ] = 0.000000
c27: [ -1.0000000000000000 Z0 * Z96 -1.0000000000000000 Z0 * Z116  + 1.0000000000000000 Z0 * Z117  ] = 0.000000
c28: [ -1.0000000000000000 Z0 * Z97 -1.0000000000000000 Z0 * Z117  + 1.0000000000000000 Z0 * Z118  ] = 0.000000
c29: [ -1.0000000000000000 Z0 * Z98 -1.0000000000000000 Z0 * Z118  + 1.0000000000000000 Z0 * Z119  ] = 0.000000
c30: [ -1.0000000000000000 Z0 * Z99 -1.0000000000000000 Z0 * Z119  + 1.0000000000000000 Z0 * Z120  ] = 0.000000
c31: [ -1.0000000000000000 Z0 * Z101  + 1.0000000000000000 Z0 * Z102 -1.0000000000000000 Z91 * Z141  ] = 0.000000
c32: [ -1.0000000000000000 Z0 * Z102  + 1.0000000000000000 Z0 * Z103 -1.0000000000000000 Z92 * Z142  ] = 0.000000
c33: [ -1.0000000000000000 Z0 * Z103  + 1.0000000000000000 Z0 * Z104 -1.0000000000000000 Z93 * Z143  ] = 0.000000
c34: [ -1.0000000000000000 Z0 * Z104  + 1.0000000000000000 Z0 * Z105 -1.0000000000000000 Z94 * Z144  ] = 0.000000
c35: [ -1.0000000000000000 Z0 * Z105  + 1.0000000000000000 Z0 * Z106 -1.0000000000000000 Z95 * Z145  ] = 0.000000
c36: [ -1.0000000000000000 Z0 * Z106  + 1.0000000000000000 Z0 * Z107 -1.0000000000000000 Z96 * Z146  ] = 0.000000
c37: [ -1.0000000000000000 Z0 * Z107  + 1.0000000000000000 Z0 * Z108 -1.0000000000000000 Z97 * Z147  ] = 0.000000
c38: [ -1.0000000000000000 Z0 * Z108  + 1.0000000000000000 Z0 * Z109 -1.0000000000000000 Z98 * Z148  ] = 0.000000
c39: [ -1.0000000000000000 Z0 * Z109  + 1.0000000000000000 Z0 * Z110 -1.0000000000000000 Z99 * Z149  ] = 0.000000
c40: [ -1.0000000000000000 Z0 * Z110  + 1.0000000000000000 Z0 * Z151 -1.0000000000000000 Z100 * Z150  ] = 0.000000
c41: [ 1.0000000000000000 Z0 * Z1  + 1.0000000000000000 Z0 * Z141  ] = 2.000000
c42: [ 1.0000000000000000 Z0 * Z2  + 1.0000000000000000 Z0 * Z142  ] = 2.000000
c43: [ 1.0000000000000000 Z0 * Z3  + 1.0000000000000000 Z0 * Z143  ] = 2.000000
c44: [ 1.0000000000000000 Z0 * Z4  + 1.0000000000000000 Z0 * Z144  ] = 2.000000
c45: [ 1.0000000000000000 Z0 * Z5  + 1.0000000000000000 Z0 * Z145  ] = 2.000000
c46: [ 1.0000000000000000 Z0 * Z6  + 1.0000000000000000 Z0 * Z146  ] = 2.000000
c47: [ 1.0000000000000000 Z0 * Z7  + 1.0000000000000000 Z0 * Z147  ] = 2.000000
c48: [ 1.0000000000000000 Z0 * Z8  + 1.0000000000000000 Z0 * Z148  ] = 2.000000
c49: [ 1.0000000000000000 Z0 * Z9  + 1.0000000000000000 Z0 * Z149  ] = 2.000000
c50: [ 1.0000000000000000 Z0 * Z10  + 1.0000000000000000 Z0 * Z150  ] = 2.000000
c51: [ -1.0000000000000000 Z0 * Z11  + 1.0000000000000000 Z0 * Z21  + 1.0000000000000000 Z0 * Z131  ] = 0.000000
c52: [ -1.0000000000000000 Z0 * Z12  + 1.0000000000000000 Z0 * Z22  + 1.0000000000000000 Z0 * Z132  ] = 0.000000
c53: [ -1.0000000000000000 Z0 * Z13  + 1.0000000000000000 Z0 * Z23  + 1.0000000000000000 Z0 * Z133  ] = 0.000000
c54: [ -1.0000000000000000 Z0 * Z14  + 1.0000000000000000 Z0 * Z24  + 1.0000000000000000 Z0 * Z134  ] = 0.000000
c55: [ -1.0000000000000000 Z0 * Z15  + 1.0000000000000000 Z0 * Z25  + 1.0000000000000000 Z0 * Z135  ] = 0.000000
c56: [ -1.0000000000000000 Z0 * Z16  + 1.0000000000000000 Z0 * Z26  + 1.0000000000000000 Z0 * Z136  ] = 0.000000
c57: [ -1.0000000000000000 Z0 * Z17  + 1.0000000000000000 Z0 * Z27  + 1.0000000000000000 Z0 * Z137  ] = 0.000000
c58: [ -1.0000000000000000 Z0 * Z18  + 1.0000000000000000 Z0 * Z28  + 1.0000000000000000 Z0 * Z138  ] = 0.000000
c59: [ -1.0000000000000000 Z0 * Z19  + 1.0000000000000000 Z0 * Z29  + 1.0000000000000000 Z0 * Z139  ] = 0.000000
c60: [ -1.0000000000000000 Z0 * Z20  + 1.0000000000000000 Z0 * Z30  + 1.0000000000000000 Z0 * Z140  ] = 0.000000
c61: [ -1.0000000000000000 Z0 * Z31  + 1.0000000000000000 Z0 * Z41  + 1.0000000000000000 Z0 * Z101  ] = 0.000000
c62: [ -1.0000000000000000 Z0 * Z32  + 1.0000000000000000 Z0 * Z42  + 1.0000000000000000 Z0 * Z102  ] = 0.000000
c63: [ -1.0000000000000000 Z0 * Z33  + 1.0000000000000000 Z0 * Z43  + 1.0000000000000000 Z0 * Z103  ] = 0.000000
c64: [ -1.0000000000000000 Z0 * Z34  + 1.0000000000000000 Z0 * Z44  + 1.0000000000000000 Z0 * Z104  ] = 0.000000
c65: [ -1.0000000000000000 Z0 * Z35  + 1.0000000000000000 Z0 * Z45  + 1.0000000000000000 Z0 * Z105  ] = 0.000000
c66: [ -1.0000000000000000 Z0 * Z36  + 1.0000000000000000 Z0 * Z46  + 1.0000000000000000 Z0 * Z106  ] = 0.000000
c67: [ -1.0000000000000000 Z0 * Z37  + 1.0000000000000000 Z0 * Z47  + 1.0000000000000000 Z0 * Z107  ] = 0.000000
c68: [ -1.0000000000000000 Z0 * Z38  + 1.0000000000000000 Z0 * Z48  + 1.0000000000000000 Z0 * Z108  ] = 0.000000
c69: [ -1.0000000000000000 Z0 * Z39  + 1.0000000000000000 Z0 * Z49  + 1.0000000000000000 Z0 * Z109  ] = 0.000000
c70: [ -1.0000000000000000 Z0 * Z40  + 1.0000000000000000 Z0 * Z50  + 1.0000000000000000 Z0 * Z110  ] = 0.000000
c71: [ -1.0000000000000000 Z0 * Z11 -1.0000000000000000 Z0 * Z31  + 1.0000000000000000 Z0 * Z51  ] = 0.000000
c72: [ -1.0000000000000000 Z0 * Z12 -1.0000000000000000 Z0 * Z32  + 1.0000000000000000 Z0 * Z52  ] = 0.000000
c73: [ -1.0000000000000000 Z0 * Z13 -1.0000000000000000 Z0 * Z33  + 1.0000000000000000 Z0 * Z53  ] = 0.000000
c74: [ -1.0000000000000000 Z0 * Z14 -1.0000000000000000 Z0 * Z34  + 1.0000000000000000 Z0 * Z54  ] = 0.000000
c75: [ -1.0000000000000000 Z0 * Z15 -1.0000000000000000 Z0 * Z35  + 1.0000000000000000 Z0 * Z55  ] = 0.000000
c76: [ -1.0000000000000000 Z0 * Z16 -1.0000000000000000 Z0 * Z36  + 1.0000000000000000 Z0 * Z56  ] = 0.000000
c77: [ -1.0000000000000000 Z0 * Z17 -1.0000000000000000 Z0 * Z37  + 1.0000000000000000 Z0 * Z57  ] = 0.000000
c78: [ -1.0000000000000000 Z0 * Z18 -1.0000000000000000 Z0 * Z38  + 1.0000000000000000 Z0 * Z58  ] = 0.000000
c79: [ -1.0000000000000000 Z0 * Z19 -1.0000000000000000 Z0 * Z39  + 1.0000000000000000 Z0 * Z59  ] = 0.000000
c80: [ -1.0000000000000000 Z0 * Z20 -1.0000000000000000 Z0 * Z40  + 1.0000000000000000 Z0 * Z60  ] = 0.000000
c81: [ -1.0000000000000000 Z0 * Z21 -1.0000000000000000 Z0 * Z41  + 1.0000000000000000 Z0 * Z61  ] = 0.000000
c82: [ -1.0000000000000000 Z0 * Z22 -1.0000000000000000 Z0 * Z42  + 1.0000000000000000 Z0 * Z62  ] = 0.000000
c83: [ -1.0000000000000000 Z0 * Z23 -1.0000000000000000 Z0 * Z43  + 1.0000000000000000 Z0 * Z63  ] = 0.000000
c84: [ -1.0000000000000000 Z0 * Z24 -1.0000000000000000 Z0 * Z44  + 1.0000000000000000 Z0 * Z64  ] = 0.000000
c85: [ -1.0000000000000000 Z0 * Z25 -1.0000000000000000 Z0 * Z45  + 1.0000000000000000 Z0 * Z65  ] = 0.000000
c86: [ -1.0000000000000000 Z0 * Z26 -1.0000000000000000 Z0 * Z46  + 1.0000000000000000 Z0 * Z66  ] = 0.000000
c87: [ -1.0000000000000000 Z0 * Z27 -1.0000000000000000 Z0 * Z47  + 1.0000000000000000 Z0 * Z67  ] = 0.000000
c88: [ -1.0000000000000000 Z0 * Z28 -1.0000000000000000 Z0 * Z48  + 1.0000000000000000 Z0 * Z68  ] = 0.000000
c89: [ -1.0000000000000000 Z0 * Z29 -1.0000000000000000 Z0 * Z49  + 1.0000000000000000 Z0 * Z69  ] = 0.000000
c90: [ -1.0000000000000000 Z0 * Z30 -1.0000000000000000 Z0 * Z50  + 1.0000000000000000 Z0 * Z70  ] = 0.000000
c91: [ 1.0000000000000000 Z0 * Z1  + 1.0000000000000000 Z0 * Z71  ] = 1.000000
c92: [ 1.0000000000000000 Z0 * Z2  + 1.0000000000000000 Z0 * Z72  ] = 1.000000
c93: [ 1.0000000000000000 Z0 * Z3  + 1.0000000000000000 Z0 * Z73  ] = 1.000000
c94: [ 1.0000000000000000 Z0 * Z4  + 1.0000000000000000 Z0 * Z74  ] = 1.000000
c95: [ 1.0000000000000000 Z0 * Z5  + 1.0000000000000000 Z0 * Z75  ] = 1.000000
c96: [ 1.0000000000000000 Z0 * Z6  + 1.0000000000000000 Z0 * Z76  ] = 1.000000
c97: [ 1.0000000000000000 Z0 * Z7  + 1.0000000000000000 Z0 * Z77  ] = 1.000000
c98: [ 1.0000000000000000 Z0 * Z8  + 1.0000000000000000 Z0 * Z78  ] = 1.000000
c99: [ 1.0000000000000000 Z0 * Z9  + 1.0000000000000000 Z0 * Z79  ] = 1.000000
c100: [ 1.0000000000000000 Z0 * Z10  + 1.0000000000000000 Z0 * Z80  ] = 1.000000
c101: [ -1.0000000000000000 Z0 * Z1  + 1.0000000000000000 Z0 * Z81  ] = 1.000000
c102: [ -1.0000000000000000 Z0 * Z2  + 1.0000000000000000 Z0 * Z82  ] = 1.000000
c103: [ -1.0000000000000000 Z0 * Z3  + 1.0000000000000000 Z0 * Z83  ] = 1.000000
c104: [ -1.0000000000000000 Z0 * Z4  + 1.0000000000000000 Z0 * Z84  ] = 1.000000
c105: [ -1.0000000000000000 Z0 * Z5  + 1.0000000000000000 Z0 * Z85  ] = 1.000000
c106: [ -1.0000000000000000 Z0 * Z6  + 1.0000000000000000 Z0 * Z86  ] = 1.000000
c107: [ -1.0000000000000000 Z0 * Z7  + 1.0000000000000000 Z0 * Z87  ] = 1.000000
c108: [ -1.0000000000000000 Z0 * Z8  + 1.0000000000000000 Z0 * Z88  ] = 1.000000
c109: [ -1.0000000000000000 Z0 * Z9  + 1.0000000000000000 Z0 * Z89  ] = 1.000000
c110: [ -1.0000000000000000 Z0 * Z10  + 1.0000000000000000 Z0 * Z90  ] = 1.000000
c111: [ 1.0000000000000000 Z0 * Z91  + 1.0000000000000000 Z0 * Z92  + 1.0000000000000000 Z0 * Z93  + 1.0000000000000000 Z0 * Z94  + 1.0000000000000000 Z0 * Z95  + 1.0000000000000000 Z0 * Z96  + 1.0000000000000000 Z0 * Z97  + 1.0000000000000000 Z0 * Z98  + 1.0000000000000000 Z0 * Z99  + 1.0000000000000000 Z0 * Z100  ] = 2.000000
ac1: Z0 - 1 = 0
ac2: [ 1.0000000000000000 Z0 * Z153 -1.0000000000000000 Z131 * Z131  ] = 0
ac3: [ 1.0000000000000000 Z0 * Z154 -1.0000000000000000 Z132 * Z132  ] = 0
ac4: [ 1.0000000000000000 Z0 * Z155 -1.0000000000000000 Z133 * Z133  ] = 0
ac5: [ 1.0000000000000000 Z0 * Z156 -1.0000000000000000 Z134 * Z134  ] = 0
ac6: [ 1.0000000000000000 Z0 * Z157 -1.0000000000000000 Z135 * Z135  ] = 0
ac7: [ 1.0000000000000000 Z0 * Z158 -1.0000000000000000 Z136 * Z136  ] = 0
ac8: [ 1.0000000000000000 Z0 * Z159 -1.0000000000000000 Z137 * Z137  ] = 0
ac9: [ 1.0000000000000000 Z0 * Z160 -1.0000000000000000 Z138 * Z138  ] = 0
ac10: [ 1.0000000000000000 Z0 * Z161 -1.0000000000000000 Z139 * Z139  ] = 0
ac11: [ 1.0000000000000000 Z0 * Z162 -1.0000000000000000 Z140 * Z140  ] = 0
Bounds
1 <= Z0 <= 1
-1.0000000000000000 <= Z1 <= 1.0000000000000000
-1.0000000000000000 <= Z2 <= 1.0000000000000000
-1.0000000000000000 <= Z3 <= 1.0000000000000000
-1.0000000000000000 <= Z4 <= 1.0000000000000000
-1.0000000000000000 <= Z5 <= 1.0000000000000000
-1.0000000000000000 <= Z6 <= 1.0000000000000000
-1.0000000000000000 <= Z7 <= 1.0000000000000000
-1.0000000000000000 <= Z8 <= 1.0000000000000000
-1.0000000000000000 <= Z9 <= 1.0000000000000000
-1.0000000000000000 <= Z10 <= 1.0000000000000000
0.0000000000000000 <= Z11 <= 100000000.0000000000000000
0.0000000000000000 <= Z12 <= 100000000.0000000000000000
0.0000000000000000 <= Z13 <= 100000000.0000000000000000
0.0000000000000000 <= Z14 <= 100000000.0000000000000000
0.0000000000000000 <= Z15 <= 100000000.0000000000000000
0.0000000000000000 <= Z16 <= 100000000.0000000000000000
0.0000000000000000 <= Z17 <= 100000000.0000000000000000
0.0000000000000000 <= Z18 <= 100000000.0000000000000000
0.0000000000000000 <= Z19 <= 100000000.0000000000000000
0.0000000000000000 <= Z20 <= 100000000.0000000000000000
0.0000000000000000 <= Z21 <= 100000000.0000000000000000
0.0000000000000000 <= Z22 <= 100000000.0000000000000000
0.0000000000000000 <= Z23 <= 100000000.0000000000000000
0.0000000000000000 <= Z24 <= 100000000.0000000000000000
0.0000000000000000 <= Z25 <= 100000000.0000000000000000
0.0000000000000000 <= Z26 <= 100000000.0000000000000000
0.0000000000000000 <= Z27 <= 100000000.0000000000000000
0.0000000000000000 <= Z28 <= 100000000.0000000000000000
0.0000000000000000 <= Z29 <= 100000000.0000000000000000
0.0000000000000000 <= Z30 <= 100000000.0000000000000000
0.0000000000000000 <= Z31 <= 100000000.0000000000000000
0.0000000000000000 <= Z32 <= 100000000.0000000000000000
0.0000000000000000 <= Z33 <= 100000000.0000000000000000
0.0000000000000000 <= Z34 <= 100000000.0000000000000000
0.0000000000000000 <= Z35 <= 100000000.0000000000000000
0.0000000000000000 <= Z36 <= 100000000.0000000000000000
0.0000000000000000 <= Z37 <= 100000000.0000000000000000
0.0000000000000000 <= Z38 <= 100000000.0000000000000000
0.0000000000000000 <= Z39 <= 100000000.0000000000000000
0.0000000000000000 <= Z40 <= 100000000.0000000000000000
0.0000000000000000 <= Z41 <= 100000000.0000000000000000
0.0000000000000000 <= Z42 <= 100000000.0000000000000000
0.0000000000000000 <= Z43 <= 100000000.0000000000000000
0.0000000000000000 <= Z44 <= 100000000.0000000000000000
0.0000000000000000 <= Z45 <= 100000000.0000000000000000
0.0000000000000000 <= Z46 <= 100000000.0000000000000000
0.0000000000000000 <= Z47 <= 100000000.0000000000000000
0.0000000000000000 <= Z48 <= 100000000.0000000000000000
0.0000000000000000 <= Z49 <= 100000000.0000000000000000
0.0000000000000000 <= Z50 <= 100000000.0000000000000000
0.0000000000000000 <= Z51 <= 100000000.0000000000000000
0.0000000000000000 <= Z52 <= 100000000.0000000000000000
0.0000000000000000 <= Z53 <= 100000000.0000000000000000
0.0000000000000000 <= Z54 <= 100000000.0000000000000000
0.0000000000000000 <= Z55 <= 100000000.0000000000000000
0.0000000000000000 <= Z56 <= 100000000.0000000000000000
0.0000000000000000 <= Z57 <= 100000000.0000000000000000
0.0000000000000000 <= Z58 <= 100000000.0000000000000000
0.0000000000000000 <= Z59 <= 100000000.0000000000000000
0.0000000000000000 <= Z60 <= 100000000.0000000000000000
0.0000000000000000 <= Z61 <= 100000000.0000000000000000
0.0000000000000000 <= Z62 <= 100000000.0000000000000000
0.0000000000000000 <= Z63 <= 100000000.0000000000000000
0.0000000000000000 <= Z64 <= 100000000.0000000000000000
0.0000000000000000 <= Z65 <= 100000000.0000000000000000
0.0000000000000000 <= Z66 <= 100000000.0000000000000000
0.0000000000000000 <= Z67 <= 100000000.0000000000000000
0.0000000000000000 <= Z68 <= 100000000.0000000000000000
0.0000000000000000 <= Z69 <= 100000000.0000000000000000
0.0000000000000000 <= Z70 <= 100000000.0000000000000000
0.0000000000000000 <= Z71 <= 100000000.0000000000000000
0.0000000000000000 <= Z72 <= 100000000.0000000000000000
0.0000000000000000 <= Z73 <= 100000000.0000000000000000
0.0000000000000000 <= Z74 <= 100000000.0000000000000000
0.0000000000000000 <= Z75 <= 100000000.0000000000000000
0.0000000000000000 <= Z76 <= 100000000.0000000000000000
0.0000000000000000 <= Z77 <= 100000000.0000000000000000
0.0000000000000000 <= Z78 <= 100000000.0000000000000000
0.0000000000000000 <= Z79 <= 100000000.0000000000000000
0.0000000000000000 <= Z80 <= 100000000.0000000000000000
0.0000000000000000 <= Z81 <= 100000000.0000000000000000
0.0000000000000000 <= Z82 <= 100000000.0000000000000000
0.0000000000000000 <= Z83 <= 100000000.0000000000000000
0.0000000000000000 <= Z84 <= 100000000.0000000000000000
0.0000000000000000 <= Z85 <= 100000000.0000000000000000
0.0000000000000000 <= Z86 <= 100000000.0000000000000000
0.0000000000000000 <= Z87 <= 100000000.0000000000000000
0.0000000000000000 <= Z88 <= 100000000.0000000000000000
0.0000000000000000 <= Z89 <= 100000000.0000000000000000
0.0000000000000000 <= Z90 <= 100000000.0000000000000000
0.1600000000000000 <= Z91 <= 0.2400000000000000
0.1600000000000000 <= Z92 <= 0.2400000000000000
0.1600000000000000 <= Z93 <= 0.2400000000000000
0.1600000000000000 <= Z94 <= 0.2400000000000000
0.1600000000000000 <= Z95 <= 0.2400000000000000
0.1600000000000000 <= Z96 <= 0.2400000000000000
0.1600000000000000 <= Z97 <= 0.2400000000000000
0.1600000000000000 <= Z98 <= 0.2400000000000000
0.1600000000000000 <= Z99 <= 0.2400000000000000
0.1600000000000000 <= Z100 <= 0.2400000000000000
-2.0000000000000000 <= Z101 <= -2.0000000000000000
-100000000.0000000000000000 <= Z102 <= 100000000.0000000000000000
-100000000.0000000000000000 <= Z103 <= 100000000.0000000000000000
-100000000.0000000000000000 <= Z104 <= 100000000.0000000000000000
-100000000.0000000000000000 <= Z105 <= 100000000.0000000000000000
-100000000.0000000000000000 <= Z106 <= 100000000.0000000000000000
-100000000.0000000000000000 <= Z107 <= 100000000.0000000000000000
-100000000.0000000000000000 <= Z108 <= 100000000.0000000000000000
-100000000.0000000000000000 <= Z109 <= 100000000.0000000000000000
-100000000.0000000000000000 <= Z110 <= 100000000.0000000000000000
0.0000000000000000 <= Z111 <= 0.0000000000000000
-100000000.0000000000000000 <= Z112 <= 100000000.0000000000000000
-100000000.0000000000000000 <= Z113 <= 100000000.0000000000000000
-100000000.0000000000000000 <= Z114 <= 100000000.0000000000000000
-100000000.0000000000000000 <= Z115 <= 100000000.0000000000000000
-100000000.0000000000000000 <= Z116 <= 100000000.0000000000000000
-100000000.0000000000000000 <= Z117 <= 100000000.0000000000000000
-100000000.0000000000000000 <= Z118 <= 100000000.0000000000000000
-100000000.0000000000000000 <= Z119 <= 100000000.0000000000000000
-100000000.0000000000000000 <= Z120 <= 100000000.0000000000000000
-100000000.0000000000000000 <= Z121 <= 100000000.0000000000000000
-100000000.0000000000000000 <= Z122 <= 100000000.0000000000000000
-100000000.0000000000000000 <= Z123 <= 100000000.0000000000000000
-100000000.0000000000000000 <= Z124 <= 100000000.0000000000000000
-100000000.0000000000000000 <= Z125 <= 100000000.0000000000000000
-100000000.0000000000000000 <= Z126 <= 100000000.0000000000000000
-100000000.0000000000000000 <= Z127 <= 100000000.0000000000000000
-100000000.0000000000000000 <= Z128 <= 100000000.0000000000000000
-100000000.0000000000000000 <= Z129 <= 100000000.0000000000000000
-100000000.0000000000000000 <= Z130 <= 100000000.0000000000000000
-100000000.0000000000000000 <= Z131 <= 100000000.0000000000000000
-100000000.0000000000000000 <= Z132 <= 100000000.0000000000000000
-100000000.0000000000000000 <= Z133 <= 100000000.0000000000000000
-100000000.0000000000000000 <= Z134 <= 100000000.0000000000000000
-100000000.0000000000000000 <= Z135 <= 100000000.0000000000000000
-100000000.0000000000000000 <= Z136 <= 100000000.0000000000000000
-100000000.0000000000000000 <= Z137 <= 100000000.0000000000000000
-100000000.0000000000000000 <= Z138 <= 100000000.0000000000000000
-100000000.0000000000000000 <= Z139 <= 100000000.0000000000000000
-100000000.0000000000000000 <= Z140 <= 100000000.0000000000000000
-100000000.0000000000000000 <= Z141 <= 100000000.0000000000000000
-100000000.0000000000000000 <= Z142 <= 100000000.0000000000000000
-100000000.0000000000000000 <= Z143 <= 100000000.0000000000000000
-100000000.0000000000000000 <= Z144 <= 100000000.0000000000000000
-100000000.0000000000000000 <= Z145 <= 100000000.0000000000000000
-100000000.0000000000000000 <= Z146 <= 100000000.0000000000000000
-100000000.0000000000000000 <= Z147 <= 100000000.0000000000000000
-100000000.0000000000000000 <= Z148 <= 100000000.0000000000000000
-100000000.0000000000000000 <= Z149 <= 100000000.0000000000000000
-100000000.0000000000000000 <= Z150 <= 100000000.0000000000000000
-100000000.0000000000000000 <= Z151 <= 100000000.0000000000000000
-100000000.0000000000000000 <= Z152 <= 100000000.0000000000000000
-10000000000000000.0000000000000000 <= Z153 <= 10000000000000000.0000000000000000
-10000000000000000.0000000000000000 <= Z154 <= 10000000000000000.0000000000000000
-10000000000000000.0000000000000000 <= Z155 <= 10000000000000000.0000000000000000
-10000000000000000.0000000000000000 <= Z156 <= 10000000000000000.0000000000000000
-10000000000000000.0000000000000000 <= Z157 <= 10000000000000000.0000000000000000
-10000000000000000.0000000000000000 <= Z158 <= 10000000000000000.0000000000000000
-10000000000000000.0000000000000000 <= Z159 <= 10000000000000000.0000000000000000
-10000000000000000.0000000000000000 <= Z160 <= 10000000000000000.0000000000000000
-10000000000000000.0000000000000000 <= Z161 <= 10000000000000000.0000000000000000
-10000000000000000.0000000000000000 <= Z162 <= 10000000000000000.0000000000000000
End